;; Mutation-Based Equivalence Benchmark
;; Source:     AutomatArk / instance00192.smt2
;; Mutations:  literal_char_inc, range_shrink_lo
;; Status:     sat
;;
;; Original regex vs mutated regex
;; Equivalence check: unsat ⟺ L(R1) = L(R2)

(set-info :smt-lib-version 2.6)
(set-info :category "mutation")
(set-info :status sat)
(set-logic QF_S)


;; R1: original
;; R2: mutated (literal_char_inc, range_shrink_lo)
(assert
  (not
    (=
      (re.union (re.++ (re.union (re.++ (str.to_re "0") (re.union (str.to_re "1") (str.to_re "3") (str.to_re "5") (str.to_re "7") (str.to_re "8"))) (str.to_re "10") (str.to_re "12")) (str.to_re "/") (re.union (re.++ (str.to_re "0") (re.range "1" "9")) (re.++ (re.union (str.to_re "1") (str.to_re "2")) (re.range "0" "9")) (re.++ (str.to_re "3") (re.union (str.to_re "0") (str.to_re "1")))) (str.to_re "/") ((_ re.loop 4 4) (re.range "0" "9"))) (re.++ (re.union (re.++ (str.to_re "0") (re.union (str.to_re "4") (str.to_re "6") (str.to_re "9"))) (str.to_re "11")) (str.to_re "/") (re.union (re.++ (str.to_re "0") (re.range "1" "9")) (re.++ (re.union (str.to_re "1") (str.to_re "2")) (re.range "0" "9")) (str.to_re "30")) (str.to_re "/") ((_ re.loop 4 4) (re.range "0" "9"))) (re.++ (str.to_re "02/") (re.union (re.++ (str.to_re "0") (re.range "1" "9")) (re.++ (str.to_re "1") (re.range "0" "9")) (re.++ (str.to_re "2") (re.range "0" "8"))) (str.to_re "/") ((_ re.loop 4 4) (re.range "0" "9"))) (re.++ (str.to_re "\u{a}02/") (re.union (re.++ (str.to_re "0") (re.range "1" "9")) (re.++ (str.to_re "1") (re.range "0" "9")) (re.++ (str.to_re "2") (re.range "0" "9"))) (str.to_re "/") ((_ re.loop 2 2) (re.range "0" "9")) (re.union (re.++ (re.union (str.to_re "0") (str.to_re "2") (str.to_re "4") (str.to_re "6") (str.to_re "8")) (re.union (str.to_re "0") (str.to_re "4") (str.to_re "8"))) (re.++ (re.union (str.to_re "1") (str.to_re "3") (str.to_re "5") (str.to_re "7") (str.to_re "9")) (re.union (str.to_re "2") (str.to_re "6"))))))
      (re.union (re.++ (re.union (re.++ (str.to_re "0") (re.union (str.to_re "1") (str.to_re "3") (str.to_re "5") (str.to_re "7") (str.to_re "8"))) (str.to_re "10") (str.to_re "12")) (str.to_re "/") (re.union (re.++ (str.to_re "0") (re.range "1" "9")) (re.++ (re.union (str.to_re "1") (str.to_re "2")) (re.range "0" "9")) (re.++ (str.to_re "3") (re.union (str.to_re "0") (str.to_re "1")))) (str.to_re "/") ((_ re.loop 4 4) (re.range "0" "9"))) (re.++ (re.union (re.++ (str.to_re "0") (re.union (str.to_re "4") (str.to_re "6") (str.to_re "9"))) (str.to_re "11")) (str.to_re "/") (re.union (re.++ (str.to_re "0") (re.range "1" "9")) (re.++ (re.union (str.to_re "1") (str.to_re "2")) (re.range "0" "9")) (str.to_re "30")) (str.to_re "/") ((_ re.loop 4 4) (re.range "0" "9"))) (re.++ (str.to_re "02/") (re.union (re.++ (str.to_re "0") (re.range "1" "9")) (re.++ (str.to_re "1") (re.range "0" "9")) (re.++ (str.to_re "2") (re.range "0" "8"))) (str.to_re "/") ((_ re.loop 4 4) (re.range "0" "9"))) (re.++ (str.to_re "\u{a}02/") (re.union (re.++ (str.to_re "0") (re.range "1" "9")) (re.++ (str.to_re "1") (re.range "1" "9")) (re.++ (str.to_re "2") (re.range "0" "9"))) (str.to_re "/") ((_ re.loop 2 2) (re.range "0" "9")) (re.union (re.++ (re.union (str.to_re "0") (str.to_re "2") (str.to_re "4") (str.to_re "6") (str.to_re "8")) (re.union (str.to_re "0") (str.to_re "5") (str.to_re "8"))) (re.++ (re.union (str.to_re "1") (str.to_re "3") (str.to_re "5") (str.to_re "7") (str.to_re "9")) (re.union (str.to_re "2") (str.to_re "6")))))))))

(check-sat)
(exit)
